120
150
52
91
91
97
48
85
91
53
81
80
76
85
80
45
58
48
69
48
92
65
70
97
35
83
20
52
87
47
21
89
80
73
87
76
25
31
93
39
76
100
69
39
80
23
56
54
31
48
76
22
24
76
100
20
92
87
37
49
33
92
97
35
20
48
96
39
68
82
58
28
58
24
35
68
22
31
82
54
65
90
89
23
29
33
74
60
82
97
95
76
61
45
53
23
24
39
31
29
52
36
89
38
31
30
100
89
25
37
82
49
89
68
69
44
69
70
61
61
45
35
